C 
 1.0000000000000000
     2.0557030981993387    0.0000005029268204    0.0000008733164838
    -0.6852331938919997    1.9381358756482154    0.0000008681559103
    -0.6852331920572658   -0.9690657046357299    1.6784761976400846
 C  
   1
Cartesian
 -0.0000000006781663  0.0000000005972072 -0.0000000000918888
Cartesian
  0.0000000000000000  0.0000000000000000  0.0000000000000000
