C 
 1.0000000000000000
    17.0000000000000000    0.0000000000000000    0.0000000000000000
     0.0000000000000000   17.0000000000000000    0.0000000000000000
     0.0000000000000000    0.0000000000000000   17.0000000000000000
 C  
   2
Cartesian
  0.4295449923848829 -0.0000000044695788  0.0000000042578642
  1.5084550076150716  0.0000000044695788 -0.0000000042578642
Cartesian
  0.0000000000000000  0.0000000000000000  0.0000000000000000
  0.0000000000000000  0.0000000000000000  0.0000000000000000
