C 
 1.0000000000000000
     2.5907285922527525   -0.0000002703313897   -0.0000000037940345
    -1.2953645302761805    2.2436366674116610    0.0000000009724221
    -0.0000000174782093   -0.0000000051016044   20.9859328552588309
 C  
   2
Cartesian
 -0.0000001712717464  1.4957576948928679  0.0000000001862669
  1.2953642332483180  0.7478787021874037 -0.0000000030078793
Cartesian
  0.0000000000000000  0.0000000000000000  0.0000000000000000
  0.0000000000000000  0.0000000000000000  0.0000000000000000
