C 
 1.0000000000000000
     2.8374646486577770   -0.0000002960772364   -0.0000000041553711
    -1.4187325807786739    2.4573163500222956    0.0000000010650337
    -0.0000000191428006   -0.0000000055874715   22.9845931271882478
 C  
   2
Cartesian
 -0.0000001875833412  1.6382108086921887  0.0000000002040066
  1.4187322554624437  0.8191052452528708 -0.0000000032943440
Cartesian
  0.0000000000000000  0.0000000000000000  0.0000000000000000
  0.0000000000000000  0.0000000000000000  0.0000000000000000
