C 
 1.0000000000000000
     1.9529179432893717    0.0000004777804794    0.0000008296506596
    -0.6509715341973996    1.8412290818658046    0.0000008247481148
    -0.6509715324544025   -0.9206124194039434    1.5945523877580803
 C  
   1
Cartesian
 -0.0000000006442579  0.0000000005673469 -0.0000000000872944
Cartesian
  0.0000000000000000  0.0000000000000000  0.0000000000000000
