C 
 1.0000000000000000
     2.7140966204552646   -0.0000002832043130   -0.0000000039747028
    -1.3570485555274272    2.3504765087169783    0.0000000010187279
    -0.0000000183105050   -0.0000000053445380   21.9852629912235393
 C  
   2
Cartesian
 -0.0000001794275439  1.5669842517925285  0.0000000001951368
  1.3570482443553809  0.7834919737201373 -0.0000000031511117
Cartesian
  0.0000000000000000  0.0000000000000000  0.0000000000000000
  0.0000000000000000  0.0000000000000000  0.0000000000000000
