C 
 1.0000000000000000
     2.2206245076452165   -0.0000002317126198   -0.0000000032520296
    -1.1103124545224405    1.9231171434957095    0.0000000008335047
    -0.0000000149813222   -0.0000000043728038   17.9879424473647163
 C  
   2
Cartesian
 -0.0000001468043541  1.2820780241938869  0.0000000001596574
  1.1103121999271297  0.6410388875892032 -0.0000000025781823
Cartesian
  0.0000000000000000  0.0000000000000000  0.0000000000000000
  0.0000000000000000  0.0000000000000000  0.0000000000000000
