C 
 1.0000000000000000
     1.7473476334694378    0.0000004274877973    0.0000007423190112
    -0.5824482148081997    1.6474154943009831    0.0000007379325238
    -0.5824482132486759   -0.8237058489403705    1.4267047679940719
 C  
   1
Cartesian
 -0.0000000005764413  0.0000000005076262 -0.0000000000781055
Cartesian
  0.0000000000000000  0.0000000000000000  0.0000000000000000
