system Si
1.0
        3.8395895958         0.0000000000         0.0000000000
        1.9197947979         3.3251821301         0.0000000000
        1.9197947979         1.1083940434         3.1350117771
   Si
    2
Direct
     0.000000000         0.000000000         0.000000000
     0.250000000         0.250000000         0.250000000
