C 
 1.0000000000000000
    23.0000000000000000    0.0000000000000000    0.0000000000000000
     0.0000000000000000   23.0000000000000000    0.0000000000000000
     0.0000000000000000    0.0000000000000000   23.0000000000000000
 C  
   2
Cartesian
  0.5811491073442533 -0.0000000060470772  0.0000000057606398
  2.0408508926556852  0.0000000060470772 -0.0000000057606398
Cartesian
  0.0000000000000000  0.0000000000000000  0.0000000000000000
  0.0000000000000000  0.0000000000000000  0.0000000000000000
