C 
 1.0000000000000000
    20.9999999999999964    0.0000000000000000    0.0000000000000000
     0.0000000000000000   20.9999999999999964    0.0000000000000000
     0.0000000000000000    0.0000000000000000   20.9999999999999964
 C  
   2
Cartesian
  0.5306144023577963 -0.0000000055212444  0.0000000052597146
  1.8633855976421467  0.0000000055212444 -0.0000000052597146
Cartesian
  0.0000000000000000  0.0000000000000000  0.0000000000000000
  0.0000000000000000  0.0000000000000000  0.0000000000000000
