 C 
 1.0000000000000000
     2.4600000000000000    0.0000000000000000    0.0000000000000000
    -1.2300000000000000    2.1304230000000000    0.0000000000000000
     0.0000000000000000    0.0000000000000000   20.0000000000000000
 C  
   2
Selective dynamics
Cartesian
 -0.0000012300000001  1.4202827101410000 10.0000000000000000   T   T   T
  1.2300012300000001  0.7101402898590000 10.0000000000000000   T   T   T
