C 
 1.0000000000000000
    21.9999999999999964    0.0000000000000000    0.0000000000000000
     0.0000000000000000   21.9999999999999964    0.0000000000000000
     0.0000000000000000    0.0000000000000000   21.9999999999999964
 C  
   2
Cartesian
  0.5558817548510248 -0.0000000057841608  0.0000000055101772
  1.9521182451489156  0.0000000057841608 -0.0000000055101772
Cartesian
  0.0000000000000000  0.0000000000000000  0.0000000000000000
  0.0000000000000000  0.0000000000000000  0.0000000000000000
