Generated by VASPKIT code
 1.000000
    0.0000000000000000    2.8750910758999999    2.8750910758999999
    2.8750910758999999    0.0000000000000000    2.8750910758999999
    2.8750910758999999    2.8750910758999999    0.0000000000000000
   Ga   As
     1     1
Direct
    0.0000000000000000    0.0000000000000000    0.0000000000000000     Ga1
    0.2500000000000000    0.2500000000000000    0.2500000000000000     As1
