C 
 1.0000000000000000
     2.1584882531093053    0.0000005280731614    0.0000009169823080
    -0.7194948535865995    2.0350426694306258    0.0000009115637058
    -0.7194948516601291   -1.0175189898675163    1.7624000075220885
 C  
   1
Cartesian
 -0.0000000007120746  0.0000000006270676 -0.0000000000964833
Cartesian
  0.0000000000000000  0.0000000000000000  0.0000000000000000
