C 
 1.0000000000000000
    18.0000000000000000    0.0000000000000000    0.0000000000000000
     0.0000000000000000   18.0000000000000000    0.0000000000000000
     0.0000000000000000    0.0000000000000000   18.0000000000000000
 C  
   2
Cartesian
  0.4548123448781112 -0.0000000047324952  0.0000000045083268
  1.5971876551218402  0.0000000047324952 -0.0000000045083268
Cartesian
  0.0000000000000000  0.0000000000000000  0.0000000000000000
  0.0000000000000000  0.0000000000000000  0.0000000000000000
