C 
 1.0000000000000000
     2.2612734080192722    0.0000005532195024    0.0000009606481322
    -0.7537565132811995    2.1319494632130369    0.0000009549715013
    -0.7537565112629924   -1.0659722750993028    1.8463238174040928
 C  
   1
Cartesian
 -0.0000000007459829  0.0000000006569280 -0.0000000001010777
Cartesian
  0.0000000000000000  0.0000000000000000  0.0000000000000000
