C 
 1.0000000000000000
     2.4673605640502410   -0.0000002574584664   -0.0000000036133662
    -1.2336805050249340    2.1367968261063441    0.0000000009261163
    -0.0000000166459136   -0.0000000048586709   19.9866027192941296
 C  
   2
Cartesian
 -0.0000001631159489  1.4245311379932077  0.0000000001773971
  1.2336802221412555  0.7122654306546703 -0.0000000028646470
Cartesian
  0.0000000000000000  0.0000000000000000  0.0000000000000000
  0.0000000000000000  0.0000000000000000  0.0000000000000000
