C 
 1.0000000000000000
     2.0972564794427049   -0.0000002188396964   -0.0000000030713613
    -1.0486284292711938    1.8162773021903924    0.0000000007871989
    -0.0000000141490266   -0.0000000041298703   16.9886123114000114
 C  
   2
Cartesian
 -0.0000001386485565  1.2108514672942265  0.0000000001507875
  1.0486281888200673  0.6054256160564697 -0.0000000024349499
Cartesian
  0.0000000000000000  0.0000000000000000  0.0000000000000000
  0.0000000000000000  0.0000000000000000  0.0000000000000000
