 C 
 1.0000000000000000
     2.5268500000000000    0.0000000000000000    0.0000000000000000
     1.2634250000000000    2.1883159999999999    0.0000000000000000
     1.2634250000000000    0.7294389999999999    2.0631650000000001
 C  
   2
Selective dynamics
Cartesian
  2.5268500000000000  1.4588774999999998  1.0315825000000001   T   T   T
  3.7902749999999998  2.1883162499999997  1.5473737500000002   T   T   T
