C 
 1.0000000000000000
     1.8501327883794048    0.0000004526341384    0.0000007859848354
    -0.6167098745027997    1.7443222880833937    0.0000007813403193
    -0.6167098728515392   -0.8721591341721568    1.5106285778760760
 C  
   1
Cartesian
 -0.0000000006103496  0.0000000005374865 -0.0000000000826999
Cartesian
  0.0000000000000000  0.0000000000000000  0.0000000000000000
