INPUT_PARAMETERS
# Created by Atomic Simulation Enviroment
ntype                                   2
ecutwfc                                 100
cal_force                               False
cal_stress                              False
scf_nmax                                100
smearing_method                         gaussian
smearing_sigma                          0.002
basis_type                              lcao
ks_solver                               genelpa
mixing_type                             pulay
mixing_beta                             0.7
scf_thr                                 1e-07
out_chg                                 1
symmetry                                0
calculation                             scf
out_band                                1
force_thr                               0.001
out_stru                                1
kspacing                                0.08
lspinorb                                0
out_wfc_lcao                            0
dft_functional                          pbe
out_mat_hs2                             False
