Ga4 As4 
1.0
5.7501821517999998e+00 0.0000000000000000e+00 0.0000000000000000e+00 
0.0000000000000000e+00 5.7501821517999998e+00 0.0000000000000000e+00 
0.0000000000000000e+00 0.0000000000000000e+00 5.7501821517999998e+00 
Ga As 
4 4 
Cartesian
   0.0000000000    0.0000000000    0.0000000000
   0.0000000000    2.8750910759    2.8750910759
   2.8750910759    0.0000000000    2.8750910759
   2.8750910759    2.8750910759    0.0000000000
   1.4375455379    1.4375455379    1.4375455379
   4.3126366138    4.3126366138    1.4375455379
   4.3126366138    1.4375455379    4.3126366138
   1.4375455379    4.3126366138    4.3126366138
