ATOMIC_SPECIES
Ga  69.723        Ga_.upf
As  74.921595     As_ONCV_PBE-1.0.upf

NUMERICAL_ORBITAL
Ga_gga_8au_100Ry_2s2p2d1f.orb
As_gga_7au_100Ry_2s2p1d.orb

LATTICE_CONSTANT
1.8897261258369282 

LATTICE_VECTORS
0.0000000000      2.8750910000      2.8750910000      
2.8750910000      0.0000000000      2.8750910000      
2.8750910000      2.8750910000      0.0000000000      

ATOMIC_POSITIONS
Direct

Ga
0.0000000000
1
0.0000000000 0.0000000000 0.0000000000 1 1 1 v 0.0 0.0 0.0 mag 0.0 

As
0.0000000000
1
0.2500000000 0.2500000000 0.2500000000 1 1 1 v 0.0 0.0 0.0 mag 0.0 

