N  B 
 1.0000000000000000
     2.5039999485000002    0.0000000000000000    0.0000000000000000
    -1.2519999743000001    2.1685275664999999    0.0000000000000000
     0.0000000000000000    0.0000000000000000   30.0000000000000000
 N   B  
   1   1
Cartesian
 -0.0000000012853333  1.4456850884267272 15.0000000000000000
  1.2519999003653348  0.7228424780732728 15.0000000000000000
