C 
 1.0000000000000000
     2.3439925358477289   -0.0000002445855431   -0.0000000034326979
    -1.1719964797736873    2.0299569848010268    0.0000000008798105
    -0.0000000158136179   -0.0000000046157374   18.9872725833294211
 C  
   2
Cartesian
 -0.0000001549601515  1.3533045810935473  0.0000000001685272
  1.1719962110341926  0.6766521591219368 -0.0000000027214146
Cartesian
  0.0000000000000000  0.0000000000000000  0.0000000000000000
  0.0000000000000000  0.0000000000000000  0.0000000000000000
