C 
 1.0000000000000000
     2.3640585629292392    0.0000005783658435    0.0000010043139564
    -0.7880181729757996    2.2288562569954475    0.0000009983792968
    -0.7880181708658557   -1.1144255603310893    1.9302476272860971
 C  
   1
Cartesian
 -0.0000000007798912  0.0000000006867883 -0.0000000001056722
Cartesian
  0.0000000000000000  0.0000000000000000  0.0000000000000000
