C 
 1.0000000000000000
    19.0000000000000000    0.0000000000000000    0.0000000000000000
     0.0000000000000000   19.0000000000000000    0.0000000000000000
     0.0000000000000000    0.0000000000000000   19.0000000000000000
 C  
   2
Cartesian
  0.4800796973713397 -0.0000000049954116  0.0000000047587894
  1.6859203026286094  0.0000000049954116 -0.0000000047587894
Cartesian
  0.0000000000000000  0.0000000000000000  0.0000000000000000
  0.0000000000000000  0.0000000000000000  0.0000000000000000
